synthesis/R_UFDT/nat/root/smt2/original.smt2
(set-logic UFDT)

(declare-datatype nat ((zero) (s (s0 nat))))

(define-fun-rec add ((x nat) (y nat)) nat
  (match y ((zero x)
           ((s y0) (s (add x y0))))))

(define-fun-rec mult ((x nat) (y nat)) nat
  (match y ((zero zero)
           ((s y0) (add (mult x y0) x)))))

(define-fun less ((x nat) (y nat)) Bool
 (exists ((k nat))(= (add x (s k)) y))
)

(define-fun leq ((x nat) (y nat)) Bool
  (exists ((k nat))(= (add x k) y))
)

; SPECIFICATION
(assert-synth ((x nat)) ((y nat)) (and (leq (mult y y) x) (less x (mult (s y) (s y)))))


